nodes = 48;
edges = 118;
starts = [1, 1, 2, 3, 3, 4, 5, 5, 6, 7, 7, 8, 9, 10, 11, 11, 12, 13, 13, 14, 15, 15, 16, 17, 17, 19, 20, 21, 22, 22, 23, 24, 24, 25, 26, 26, 28, 28, 30, 31, 32, 33, 33, 34, 35, 35, 36, 37, 37, 38, 39, 40, 41, 42, 43, 44, 45, 46, 47, 2, 10, 3, 4, 12, 5, 6, 14, 7, 8, 16, 9, 18, 11, 12, 21, 13, 14, 23, 15, 16, 25, 17, 18, 27, 29, 21, 22, 23, 32, 24, 25, 34, 26, 27, 36, 29, 38, 31, 40, 33, 34, 42, 35, 36, 44, 37, 38, 46, 39, 48, 41, 42, 43, 44, 45, 46, 47, 48];
ends = [2, 10, 3, 4, 12, 5, 6, 14, 7, 8, 16, 9, 18, 11, 12, 21, 13, 14, 23, 15, 16, 25, 17, 18, 27, 29, 21, 22, 23, 32, 24, 25, 34, 26, 27, 36, 29, 38, 31, 40, 33, 34, 42, 35, 36, 44, 37, 38, 46, 39, 48, 41, 42, 43, 44, 45, 46, 47, 48, 1, 1, 2, 3, 3, 4, 5, 5, 6, 7, 7, 8, 9, 10, 11, 11, 12, 13, 13, 14, 15, 15, 16, 17, 17, 19, 20, 21, 22, 22, 23, 24, 24, 25, 26, 26, 28, 28, 30, 31, 32, 33, 33, 34, 35, 35, 36, 37, 37, 38, 39, 40, 41, 42, 43, 44, 45, 46, 47];
weights = [1, 13, 11, 1, 18, 8, 12, 13, 1, 3, 5, 1, 15, 6, 8, 19, 5, 11, 10, 10, 10, 6, 16, 12, 6, 11, 2, 7, 12, 3, 7, 2, 12, 19, 6, 4, 14, 2, 1, 11, 4, 13, 15, 1, 18, 16, 5, 10, 9, 15, 11, 11, 3, 5, 8, 10, 2, 7, 13, 1, 13, 11, 1, 18, 8, 12, 13, 1, 3, 5, 1, 15, 6, 8, 19, 5, 11, 10, 10, 10, 6, 16, 12, 6, 11, 2, 7, 12, 3, 7, 2, 12, 19, 6, 4, 14, 2, 1, 11, 4, 13, 15, 1, 18, 16, 5, 10, 9, 15, 11, 11, 3, 5, 8, 10, 2, 7, 13];
start = 1;
end= 48;
tasks = 1;
task = array2d(1..tasks, 1..nodes, [0, 0, 0, 0, 0, 1, 0, 0, 0, 0, 0, 0, 0, 0, 0, 0, 0, 0, 0, 0, 0, 0, 0, 0, 0, 0, 1, 0, 0, 0, 0, 0, 0, 0, 0, 0, 0, 0, 0, 0, 0, 0, 0, 0, 0, 1, 0, 0]);
